174	32	4	71	
10	10	10	10

0	0	0	0	0	0	21	1	2	3	4	5	6	7	8	9	10	11	12	13	14	15	16	17	18	21	22	30
1	1	0	1	1	6	6	28	27	26	25	24	20
2	3	1	3	0	10	5	27	26	25	24	20
3	6	5	0	1	3	5	27	26	25	23	19
4	7	0	2	7	4	5	29	28	25	24	23
5	0	4	8	5	8	4	28	27	23	19
6	3	5	0	6	2	4	28	25	24	23
7	4	2	0	2	9	4	28	26	25	24
8	4	0	4	4	8	4	29	28	24	23
9	5	0	4	8	9	3	29	26	23
10	5	4	0	5	1	3	27	25	23
11	3	4	0	3	1	3	27	26	23
12	4	4	8	0	8	3	28	26	25
13	7	0	5	2	5	2	28	26
14	0	3	1	3	6	2	27	25
15	5	4	0	5	6	2	27	24
16	2	4	4	0	3	2	26	24
17	3	5	0	3	2	2	25	23
18	3	0	2	4	4	2	24	23
19	3	6	5	0	9	1	24
20	5	0	6	2	9	1	23
21	5	0	3	2	10	1	29
22	4	4	4	0	6	1	23
23	0	6	3	7	3	1	31
24	0	4	5	7	8	1	31
25	2	4	4	0	3	1	31
26	0	2	5	4	9	1	31
27	0	3	3	6	1	1	31
28	7	4	0	2	4	1	31
29	1	6	0	2	8	1	31
30	4	0	4	5	9	1	31
31	0	0	0	0	0	0
